(declare-sort sk 0)
(declare-sort fun1 0)
(declare-sort fun12 0)
(declare-sort fun13 0)
(declare-sort fun14 0)
(declare-sort fun15 0)
(declare-sort sk2 0)
(declare-datatype list ((nil) (cons (head sk) (tail list))))
(declare-fun filter (fun13 list) list)
(declare-fun ++ (list list) list)
(declare-fun apply1 (fun1 sk) sk)
(declare-fun apply12 (fun12 sk) sk2)
(declare-fun apply13 (fun13 sk) Bool)
(declare-fun apply14 (fun14 sk2) sk)
(declare-fun apply15 (fun15 sk2) sk2)
(assert (forall ((x fun13)) (= (filter x nil) nil)))
(assert
  (forall ((x fun13) (z sk) (xs list))
    (=> (apply13 x z)
      (= (filter x (cons z xs)) (cons z (filter x xs))))))
(assert
  (forall ((x fun13) (z sk) (xs list))
    (=> (not (apply13 x z)) (= (filter x (cons z xs)) (filter x xs)))))
(assert (forall ((y list)) (= (++ nil y) y)))
(assert
  (forall ((y list) (z sk) (xs list))
    (= (++ (cons z xs) y) (cons z (++ xs y)))))
